p tw 85 93
1 2
2 13
3 4
4 5
5 6
6 7
7 8
8 9
9 10
9 71
10 11
10 32
11 12
12 14
13 24
14 15
15 16
16 17
17 18
18 19
18 26
19 20
20 21
21 22
22 23
23 25
24 35
25 15
26 27
27 28
28 29
29 30
30 31
31 32
32 33
33 34
34 36
35 46
36 37
37 38
37 5
38 39
39 40
39 5
40 41
41 42
42 43
43 44
43 51
43 58
43 64
44 45
45 47
46 57
47 48
48 49
49 50
50 5
51 52
52 53
53 54
54 55
55 56
56 5
57 68
58 59
59 60
60 61
61 62
62 63
63 5
64 65
65 66
66 67
67 69
68 79
69 70
70 5
71 72
72 73
73 74
74 75
75 76
76 77
77 78
77 83
78 80
79 85
80 81
81 82
82 75
83 84
85 3
